3233 3082 3001 2915 2850 2791 2753 2729 2657 2593 2532 2435 2390 2350 2276 2266 2202 2171 2124 2087 2039 2024 1992 1959 1939 1912 1880 1869 1847 1825 1805 1780 1759 1743 1724 1706 1689 1672 1656 1643 1633 1615 1601 1589 1579 1566 1558 1546 1541 1524 1513 1504 1483 1483 1476 1470 1464 1460 1450 1444 1435 1423 1411 1411 1405 1399 1396 1386 1382 1370 1370 1361 1361 1342 1342 1339 1332 1327 1322 1317 1311 1308 1301 1298 1296 1290 1286 1284 1280 1277 1277 1275 1272 1272 1272 1271 1267 1257 1256 1254 1253 1252 1238 1234 1232 1227 1227 1227 1225 1225 1218 1218 1214 1205 1205 1201 1201 1201 1200 1200 1200 1200 1197 1194 1194 1194 1191 1191 1189 1189 1187 1185 1185 1184 1184 1182 1181 1179 1179 1179 1178 1175 1175 1173 1172 1169 1167 1167 1166 1166 1166 1166 1159 1158 1158 1158 1156 1155 1154 1152 1151 1150 1150 1147 1147 1147 1143 1143 1141 1141 1141 1141 1140 1140 1140 1140 1140 1140 1140 1140 1140 1140 1140 1139 1138 1138 1138 1138 1138 1138 1138 1138 1138 1138 1138 1138 1134 1134 1134 1134 1134 1134 1134 1134 1134 1134 1134 1134 1134 1134 1134 1134 1134 1134 1134 1134 1134 1134 1134 1134 1134 1134 1134 1134 1134 1134 1134 1134 1134 1134 1134 1134 1134 1134 1134 1134 1134 1134 1134 1134 1134 1134 1134 1134 1134 1134 1134 1134 1134 1134 1134 1134 1134 1134 1134 1134 1133 1133 1133 1133 1133 1133 1133 1133 1133 1133 1133 1133 1133 1133 1133 1133 1133 1133 1133 1133 1133 1133 1133 1133 1133 1133 1133 1133 1133 1133 1133 1133 1133 1133 1133 1133 1133 1133 1133 1133 1133 1133 1133 1133 1133 1133 1133 1133 1133 1133 1133 1133 1133 1133 1133 1133 1133 1133 1133 1133 1133 1133 1133 1133 1133 1133 1133 1133 1133 1133 1133 1133 1133 1133 1133 1133 1133 1133 1133 1133 1133 1133 1133 1133 1133 1133 1133 1133 1133 1133 1133 1133 1133 1133 1133 1133 1133 1133 1133 1133 1133 1133 1133 1133 1133 1133 1133 1133 1133 1133 1133 1133 1133 1133 1133 1133 1133 1133 1133 1133 1133 1133 1133 1133 1133 1133 1133 1133 1133 1133 1133 1133 1133 1133 1133 1133 1133 1133 1133 1133 1133 1133 1133 1133 1133 1133 1133 1133 1133 1133 1133 1133 1133 1133 1133 1133 1133 1133 1133 1133 1133 1133 1133 1133 1133 1133 1133 1133 1133 1133 1133 1133 1133 1133 1133 1133 1133 1133 1133 1133 1133 1133 1133 1133 1133 1133 1133 1133 1133 1133 1133 1133 1133 1133 1133 1133 1133 1133 1133 1133 1133 1133 1133 1133 1133 1133 1133 1133 1133 1133 1133 1133 1133 1133 1133 1133 1133 1133 1133 1133 1133 1133 1133 1133 1133 1133 1133 1133 1133 1133 1133 1133 1133 1133 1133 1133 1133 1133 1133 1133 1133 1133 1133 1133 1133 1133 1133 1133 1133 1133 1133 1133 1133 1133 1133 1133 1133 1133 1133 1133 1133 1133 1133 1133 1133 1133 1133 1133 1133 1133 1133 1133 1133 1133 1133 1133 1133 1133 1133 1133 1133 1133 1133 1133 1133 1133 1133 1133 1133 1133 1133 1133 1133 1133 1133 1133 1133 1133 1133 1133 1133 1133 1133 1133 1133 1133 1133 1133 1133 1133 1133 1133 1133 1133 1133 1133 1133 1133 1133 1133 1133 1133 1133 1133 1133 1133 1133 1133 1133 1133 1133 1133 1133 1133 1133 1133 1133 1133 1133 1133 1133 1133 1133 1133 1133 1133 1133 1133 1133 1133 1133 1133 1133 1133 1133 1133 1133 1133 1133 1133 1133 1133 1133 1133 1133 1133 1133 1133 1133 1133 1133 1133 1133 1133 1133 1133 1133 1133 1133 1133 1133 1133 1133 1133 1133 1133 1133 1133 1133 1133 1133 1133 1133 1133 1133 1133 1133 1133 1133 1133 1133 1133 1133 1133 1133 1133 1133 1133 1133 1133 1133 1133 1133 1133 1133 1133 1133 1133 1133 1133 1133 1133 1133 1133 1133 1133 1133 1133 1133 1133 1133 1133 1133 1133 1133 1133 1133 1133 1133 1133 1133 1133 1133 1133 1133 1133 1133 1133 1133 1133 1133 1133 1133 1133 1133 1133 1133 1133 1133 1133 1133 1133 1133 1133 1133 1133 1133 1133 1133 1133 1133 1133 1133 1133 1133 1133 1133 1133 1133 1133 1133 1133 1133 1133 1133 1133 1133 1133 1133 1133 1133 1133 1133 1133 1133 1133 1133 1133 1133 1133 1133 1133 1133 1133 1133 1133 1133 1133 1133 1133 1133 1133 1133 1133 1133 1133 1133 1133 1133 1133 1133 1133 1133 1133 1133 1133 1133 1133 1133 1133 1133 1133 1133 1133 1133 1133 1133 1133 1133 1133 1133 1133 1133 1133 1133 1133 1133 1133 1133 1133 1133 1133 1133 1133 1133 1133 1133 1133 1133 1133 1133 1133 1133 1133 1133 1133 1133 1133 1133 1133 1133 1133 1133 1133 1133 1133 1133 1133 1133 1133 1133 1133 1133 1133 1133 1133 1133 1133 1133 1133 1133 1133 1133 1133 1133 1133 1133 1133 1133 1133 1133 1133 1133 1133 1133 1133 1133 1133 1133 1133 1133 1133 1133 1133 1133 1133 1133 1133 1133 1133 1133 1133 1133 1133 1133 1133 1133 1133 1133 1133 1133 1133 1133 1133 1133 1133 1133 1133 1133 1133 1133 1133 1133 1133 1133 1133 1133 1133 1133 1133 1133 1133 1133 1133 1133 1133 1133 1133 1133 1133 1133 1133 1133 1133 1133 1133 1133 1133 1133 1133 1133 1133 1133 1133 1133 1133 1133 1133 1133 1133 1133 1133 1133 1133 1133 1133 1133 1133 1133 1133 1133 1133 1133 1133 1133 1133 1133 1133 1133 1133 1133 1133 1133 1133 1133 1133 1133 1133 1133 1133 1133 1133 1133 1133 1133 1133 1133 1133 1133 1133 1133 1133 1133 1133 1133 1133 1133 1133 1133 1133 1133 1133 1133 1133 1133 1133 1133 1133 1133 1133 1133 1133 1133 1133 1133 1133 1133 1133 1133 1133 1133 1133 1133 1133 1133 1133 1133 1133 1133 1133 1133 1133 1133 1133 1133 1133 1133 1133 1133 1133 1133 1133 1133 1133 1133 1133 1133 1133 1133 1133 1133 1133 1133 1133 1133 1133 1133 1133 1133 1133 1133 1133 1133 1133 1133 1133 1133 1133 1133 1133 1133 1133 1133 1133 1133 1133 1133 1133 1133 1133 1133 1133 1133 1133 1133 1133 1133 1133 1133 1133 1133 1133 1133 1133 1133 1133 1133 1133 1133 1133 1133 1133 1133 1133 1133 1133 1133 1133 1133 1133 1133 1133 1133 1133 1133 1133 1133 1133 1133 1133 1133 1133 1133 1133 1133 1133 1133 1133 1133 1133 1133 1133 1133 1133 1133 1133 1133 1133 1133 1133 1133 1133 1133 1133 1133 1133 1133 1133 1133 1133 1133 1133 1133 1133 1133 1133 1133 1133 1133 1133 1133 1133 1133 1133 1133 1133 1133 1133 1133 1133 1133 1133 1133 1133 1133 1133 1133 1133 1133 1133 1133 1133 1133 1133 1133 1133 1133 1133 1133 1133 1133 1133 1133 1133 1133 1133 1133 1133 1133 1133 1133 1133 1133 1133 1133 1133 1133 1133 1133 1133 1133 1133 1133 1133 1133 1133 1133 1133 1133 1133 1133 1133 1133 1133 1133 1133 1133 1133 1133 1133 1133 1133 1133 1133 1133 1133 1133 1133 1133 1133 1133 1133 1133 1133 1133 1133 1133 1133 1133 1133 1133 1133 1133 1133 1133 1133 1133 1133 1133 1133 1133 1133 1133 1133 1133 1133 1133 1133 1133 1133 1133 1133 1133 1133 1133 1133 1133 1133 1133 1133 1133 1133 1133 1133 1133 1133 1133 1133 1133 1133 1133 1133 1133 1133 1133 1133 1133 1133 1133 1133 1133 1133 1133 1133 1133 1133 1133 1133 1133 1133 1133 1133 1133 1133 1133 1133 1133 1133 1133 1133 1133 1133 1133 1133 1133 1133 1133 1133 1133 1133 1133 1133 1133 1133 1133 1133 1133 1133 1133 1133 1133 1133 1133 1133 1133 1133 1133 1133 1133 1133 1133 1133 1133 1133 1133 1133 1133 1133 1133 1133 1133 1133 1133 1133 1133 1133 1133 1133 1133 1133 1133 1133 1133 1133 1133 1133 1133 1133 1133 1133 1133 1133 1133 1133 1133 1133 1133 1133 1133 1133 1133 1133 1133 1133 1133 1133 1133 1133 1133 1133 1133 1133 1133 1133 1133 1133 1133 1133 1133 1133 1133 1133 1133 1133 1133 1133 1133 1133 1133 1133 1133 1133 1133 1133 1133 1133 1133 1133 1133 1133 1133 1133 1133 1133 1133 1133 1133 1133 1133 1133 1133 1133 1133 1133 1133 1133 1133 1133 1133 1133 1133 1133 1133 1133 1133 1133 1133 1133 1133 1133 1133 1133 1133 1133 1133 1133 1133 1133 1133 1133 1133 1133 1133 1133 1133 1133 1133 1133 1133 1133 1133 1133 1133 1133 1133 1133 1133 1133 1133 1133 1133 1133 1133 1133 1133 1133 1133 1133 1133 1133 1133 1133 1133 1133 1133 1133 1133 1133 1133 1133 1133 1133 1133 1133 
3587 3401 3272 3162 3075 3003 2930 2870 2813 2763 2702 2630 2555 2490 2428 2373 2325 2281 2232 2179 2132 2098 2063 2028 1993 1963 1938 1913 1887 1868 1846 1824 1798 1774 1755 1737 1720 1704 1686 1674 1659 1643 1628 1614 1600 1588 1577 1565 1554 1545 1540 1532 1521 1508 1495 1483 1477 1472 1464 1458 1450 1441 1433 1424 1419 1412 1407 1404 1397 1389 1380 1369 1369 1363 1360 1355 1341 1339 1336 1330 1325 1320 1314 1308 1302 1297 1295 1290 1285 1280 1280 1279 1276 1274 1274 1272 1271 1270 1270 1265 1256 1254 1253 1251 1248 1238 1232 1229 1226 1226 1226 1225 1224 1219 1217 1213 1204 1204 1200 1200 1200 1200 1199 1199 1199 1196 1195 1193 1190 1190 1190 1188 1188 1185 1184 1184 1183 1182 1181 1180 1178 1178 1178 1177 1177 1174 1172 1169 1166 1166 1166 1166 1165 1165 1165 1164 1158 1157 1157 1155 1154 1153 1151 1149 1149 1149 1146 1146 1146 1142 1141 1141 1140 1140 1140 1140 1140 1140 1140 1140 1140 1140 1140 1139 1139 1139 1139 1138 1138 1138 1138 1138 1138 1138 1138 1138 1137 1137 1137 1134 1134 1134 1134 1134 1134 1134 1134 1134 1134 1134 1134 1134 1134 1134 1134 1134 1134 1134 1134 1134 1134 1134 1134 1134 1134 1134 1134 1134 1134 1134 1134 1134 1134 1134 1134 1134 1134 1134 1134 1134 1134 1134 1134 1134 1134 1134 1134 1134 1134 1134 1134 1134 1134 1134 1134 1134 1133 1133 1133 1133 1133 1133 1133 1133 1133 1133 1133 1133 1133 1133 1133 1133 1133 1133 1133 1133 1133 1133 1133 1133 1133 1133 1133 1133 1133 1133 1133 1133 1133 1133 1133 1133 1133 1133 1133 1133 1133 1133 1133 1133 1133 1133 1133 1133 1133 1133 1133 1133 1133 1133 1133 1133 1133 1133 1133 1133 1133 1133 1133 1133 1133 1133 1133 1133 1133 1133 1133 1133 1133 1133 1133 1133 1133 1133 1133 1133 1133 1133 1133 1133 1133 1133 1133 1133 1133 1133 1133 1133 1133 1133 1133 1133 1133 1133 1133 1133 1133 1133 1133 1133 1133 1133 1133 1133 1133 1133 1133 1133 1133 1133 1133 1133 1133 1133 1133 1133 1133 1133 1133 1133 1133 1133 1133 1133 1133 1133 1133 1133 1133 1133 1133 1133 1133 1133 1133 1133 1133 1133 1133 1133 1133 1133 1133 1133 1133 1133 1133 1133 1133 1133 1133 1133 1133 1133 1133 1133 1133 1133 1133 1133 1133 1133 1133 1133 1133 1133 1133 1133 1133 1133 1133 1133 1133 1133 1133 1133 1133 1133 1133 1133 1133 1133 1133 1133 1133 1133 1133 1133 1133 1133 1133 1133 1133 1133 1133 1133 1133 1133 1133 1133 1133 1133 1133 1133 1133 1133 1133 1133 1133 1133 1133 1133 1133 1133 1133 1133 1133 1133 1133 1133 1133 1133 1133 1133 1133 1133 1133 1133 1133 1133 1133 1133 1133 1133 1133 1133 1133 1133 1133 1133 1133 1133 1133 1133 1133 1133 1133 1133 1133 1133 1133 1133 1133 1133 1133 1133 1133 1133 1133 1133 1133 1133 1133 1133 1133 1133 1133 1133 1133 1133 1133 1133 1133 1133 1133 1133 1133 1133 1133 1133 1133 1133 1133 1133 1133 1133 1133 1133 1133 1133 1133 1133 1133 1133 1133 1133 1133 1133 1133 1133 1133 1133 1133 1133 1133 1133 1133 1133 1133 1133 1133 1133 1133 1133 1133 1133 1133 1133 1133 1133 1133 1133 1133 1133 1133 1133 1133 1133 1133 1133 1133 1133 1133 1133 1133 1133 1133 1133 1133 1133 1133 1133 1133 1133 1133 1133 1133 1133 1133 1133 1133 1133 1133 1133 1133 1133 1133 1133 1133 1133 1133 1133 1133 1133 1133 1133 1133 1133 1133 1133 1133 1133 1133 1133 1133 1133 1133 1133 1133 1133 1133 1133 1133 1133 1133 1133 1133 1133 1133 1133 1133 1133 1133 1133 1133 1133 1133 1133 1133 1133 1133 1133 1133 1133 1133 1133 1133 1133 1133 1133 1133 1133 1133 1133 1133 1133 1133 1133 1133 1133 1133 1133 1133 1133 1133 1133 1133 1133 1133 1133 1133 1133 1133 1133 1133 1133 1133 1133 1133 1133 1133 1133 1133 1133 1133 1133 1133 1133 1133 1133 1133 1133 1133 1133 1133 1133 1133 1133 1133 1133 1133 1133 1133 1133 1133 1133 1133 1133 1133 1133 1133 1133 1133 1133 1133 1133 1133 1133 1133 1133 1133 1133 1133 1133 1133 1133 1133 1133 1133 1133 1133 1133 1133 1133 1133 1133 1133 1133 1133 1133 1133 1133 1133 1133 1133 1133 1133 1133 1133 1133 1133 1133 1133 1133 1133 1133 1133 1133 1133 1133 1133 1133 1133 1133 1133 1133 1133 1133 1133 1133 1133 1133 1133 1133 1133 1133 1133 1133 1133 1133 1133 1133 1133 1133 1133 1133 1133 1133 1133 1133 1133 1133 1133 1133 1133 1133 1133 1133 1133 1133 1133 1133 1133 1133 1133 1133 1133 1133 1133 1133 1133 1133 1133 1133 1133 1133 1133 1133 1133 1133 1133 1133 1133 1133 1133 1133 1133 1133 1133 1133 1133 1133 1133 1133 1133 1133 1133 1133 1133 1133 1133 1133 1133 1133 1133 1133 1133 1133 1133 1133 1133 1133 1133 1133 1133 1133 1133 1133 1133 1133 1133 1133 1133 1133 1133 1133 1133 1133 1133 1133 1133 1133 1133 1133 1133 1133 1133 1133 1133 1133 1133 1133 1133 1133 1133 1133 1133 1133 1133 1133 1133 1133 1133 1133 1133 1133 1133 1133 1133 1133 1133 1133 1133 1133 1133 1133 1133 1133 1133 1133 1133 1133 1133 1133 1133 1133 1133 1133 1133 1133 1133 1133 1133 1133 1133 1133 1133 1133 1133 1133 1133 1133 1133 1133 1133 1133 1133 1133 1133 1133 1133 1133 1133 1133 1133 1133 1133 1133 1133 1133 1133 1133 1133 1133 1133 1133 1133 1133 1133 1133 1133 1133 1133 1133 1133 1133 1133 1133 1133 1133 1133 1133 1133 1133 1133 1133 1133 1133 1133 1133 1133 1133 1133 1133 1133 1133 1133 1133 1133 1133 1133 1133 1133 1133 1133 1133 1133 1133 1133 1133 1133 1133 1133 1133 1133 1133 1133 1133 1133 1133 1133 1133 1133 1133 1133 1133 1133 1133 1133 1133 1133 1133 1133 1133 1133 1133 1133 1133 1133 1133 1133 1133 1133 1133 1133 1133 1133 1133 1133 1133 1133 1133 1133 1133 1133 1133 1133 1133 1133 1133 1133 1133 1133 1133 1133 1133 1133 1133 1133 1133 1133 1133 1133 1133 1133 1133 1133 1133 1133 1133 1133 1133 1133 1133 1133 1133 1133 1133 1133 1133 1133 1133 1133 1133 1133 1133 1133 1133 1133 1133 1133 1133 1133 1133 1133 1133 1133 1133 1133 1133 1133 1133 1133 1133 1133 1133 1133 1133 1133 1133 1133 1133 1133 1133 1133 1133 1133 1133 1133 1133 1133 1133 1133 1133 1133 1133 1133 1133 1133 1133 1133 1133 1133 1133 1133 1133 1133 1133 1133 1133 1133 1133 1133 1133 1133 1133 1133 1133 1133 1133 1133 1133 1133 1133 1133 1133 1133 1133 1133 1133 1133 1133 1133 1133 1133 1133 1133 1133 1133 1133 1133 1133 1133 1133 1133 1133 1133 1133 1133 1133 1133 1133 1133 1133 1133 1133 1133 1133 1133 1133 1133 1133 1133 1133 1133 1133 1133 1133 1133 1133 1133 1133 1133 1133 1133 1133 1133 1133 1133 1133 1133 1133 1133 1133 1133 1133 1133 1133 1133 1133 1133 1133 1133 1133 1133 1133 1133 1133 1133 1133 1133 1133 1133 1133 1133 1133 1133 1133 1133 1133 1133 1133 1133 1133 1133 1133 1133 1133 1133 1133 1133 1133 1133 1133 1133 1133 1133 1133 1133 1133 1133 1133 1133 1133 1133 1133 1133 1133 1133 1133 1133 1133 1133 1133 1133 1133 1133 1133 1133 1133 1133 1133 1133 1133 1133 1133 1133 1133 1133 1133 1133 1133 1133 1133 1133 1133 1133 1133 1133 1133 1133 1133 1133 1133 1133 1133 1133 1133 1133 1133 1133 1133 1133 1133 1133 1133 1133 1133 1133 1133 1133 1133 1133 1133 1133 1133 1133 1133 1133 1133 1133 1133 1133 1133 1133 1133 1133 1133 1133 1133 1133 1133 1133 1133 1133 1133 1133 1133 1133 1133 1133 1133 1133 1133 1133 1133 1133 1133 1133 1133 1133 1133 1133 1133 1133 1133 1133 1133 1133 1133 1133 1133 1133 1133 1133 1133 1133 1133 1133 1133 1133 1133 1133 1133 1133 1133 1133 1133 1133 1133 1133 1133 1133 1133 1133 1133 1133 1133 1133 1133 1133 1133 1133 1133 1133 1133 1133 1133 1133 1133 1133 1133 1133 1133 1133 1133 1133 1133 1133 1133 1133 1133 1133 1133 1133 1133 1133 1133 1133 1133 1133 1133 1133 1133 1133 1133 1133 1133 1133 1133 1133 1133 1133 1133 1133 1133 1133 1133 1133 1133 1133 1133 1133 1133 1133 1133 1133 1133 1133 1133 1133 1133 1133 1133 1133 1133 1133 1133 1133 1133 1133 1133 1133 1133 1133 1133 1133 1133 1133 1133 